(set-info :source |printed by MathSAT|)
(declare-fun call_environment.warning_start_cant_become_true_when_door_is_opening.next () Bool)
(declare-fun call_environment.call_jafter.flby.next () Bool)
(declare-fun call_environment.door_doesnt_open_if_not_asked.next () Bool)
(declare-fun call_properties.call_once_from_to.call_switch.value.next () Bool)
(declare-fun call_properties.door_opens_before_leaving_station () Bool)
(declare-fun call_environment.warning_start_and_in_station_go_down_simultaneously () Bool)
(declare-fun call_environment.call_edge3.edge () Bool)
(declare-fun param_request_door.next () Bool)
(declare-fun call_environment.call_edge.flby () Bool)
(declare-fun call_properties.call_jafter.after () Bool)
(declare-fun call_properties.call_jafter2.flby.next () Bool)
(declare-fun call_environment.call_edge3.edge.next () Bool)
(declare-fun call_controller.close_door () Bool)
(declare-fun call_environment.call_edge4.flby () Bool)
(declare-fun call_controller.open_door () Bool)
(declare-fun close_door.next () Bool)
(declare-fun call_environment.call_edge.edge () Bool)
(declare-fun call_properties.call_jafter2.after.next () Bool)
(declare-fun call_environment.call_edge2.edge () Bool)
(declare-fun call_controller.door_ok.next () Bool)
(declare-fun call_environment.call_edge4.edge () Bool)
(declare-fun call_environment.tramway_doesnt_start_if_not_door_ok.next () Bool)
(declare-fun call_environment.flby.next () Bool)
(declare-fun call_environment.call_edge4.flby.next () Bool)
(declare-fun call_properties.call_jafter.flby () Bool)
(declare-fun call_environment.call_edge2.flby.next () Bool)
(declare-fun call_environment.call_edge5.flby.next () Bool)
(declare-fun call_environment.call_edge3.flby () Bool)
(declare-fun call_properties.call_once_from_to.call_switch.value () Bool)
(declare-fun close_door () Bool)
(declare-fun call_properties.door_opens_before_leaving_station.next () Bool)
(declare-fun call_environment.call_edge4.edge.next () Bool)
(declare-fun param_warning_start.next () Bool)
(declare-fun call_environment.env_always_ok.next () Bool)
(declare-fun call_properties.door_doesnt_open_out_of_station.next () Bool)
(declare-fun call_environment.door_doesnt_close_if_not_asked () Bool)
(declare-fun param_door_is_open.next () Bool)
(declare-fun call_environment.call_edge6.flby.next () Bool)
(declare-fun env_always_ok.next () Bool)
(declare-fun call_environment.initially_not_in_station.next () Bool)
(declare-fun call_environment.warning_start_only_in_station () Bool)
(declare-fun call_environment.flby () Bool)
(declare-fun call_properties.call_once_from_to.call_jafter.after () Bool)
(declare-fun call_environment.call_edge5.edge () Bool)
(declare-fun call_properties.call_once_from_to.call_switch.ite () Bool)
(declare-fun call_controller.close_door.next () Bool)
(declare-fun call_environment.tramway_doesnt_start_if_not_door_ok () Bool)
(declare-fun call_environment.flby2 () Bool)
(declare-fun call_controller.door_ok () Bool)
(declare-fun call_properties._OK_.next () Bool)
(declare-fun prop_ok () Bool)
(declare-fun call_properties.call_once_from_to.call_switch.flby.next () Bool)
(declare-fun call_environment.initially_not_in_station () Bool)
(declare-fun call_environment.env_ok () Bool)
(declare-fun door_ok () Bool)
(declare-fun call_properties.call_once_from_to.between_A_and_X.next () Bool)
(declare-fun call_properties.call_once_from_to._OK_.next () Bool)
(declare-fun open_door () Bool)
(declare-fun call_properties.call_edge.flby.next () Bool)
(declare-fun call_environment.call_edge5.flby () Bool)
(declare-fun call_environment.call_edge5.edge.next () Bool)
(declare-fun call_properties.call_once_from_to.call_switch.ite2 () Bool)
(declare-fun call_environment.flby3 () Bool)
(declare-fun call_environment.call_edge2.flby () Bool)
(declare-fun call_environment.call_edge6.edge () Bool)
(declare-fun param_in_station.next () Bool)
(declare-fun param_in_station () Bool)
(declare-fun param_request_door () Bool)
(declare-fun call_controller.call_switch.ite.next () Bool)
(declare-fun call_controller.call_switch.ite () Bool)
(declare-fun call_properties.call_once_from_to.call_switch.flby () Bool)
(declare-fun call_properties.call_edge.flby () Bool)
(declare-fun call_environment.door_doesnt_open_if_not_asked () Bool)
(declare-fun _OK_.next () Bool)
(declare-fun call_environment.warning_start_and_in_station_go_down_simultaneously.next () Bool)
(declare-fun call_controller.req_pending.next () Bool)
(declare-fun call_environment.env_ok.next () Bool)
(declare-fun open_door.next () Bool)
(declare-fun call_controller.call_switch.ite2 () Bool)
(declare-fun call_environment.call_edge3.flby.next () Bool)
(declare-fun param_warning_start () Bool)
(declare-fun param_door_is_open () Bool)
(declare-fun call_controller.call_switch.flby () Bool)
(declare-fun call_properties._OK_ () Bool)
(declare-fun call_environment.call_edge6.edge.next () Bool)
(declare-fun call_environment.flby3.next () Bool)
(declare-fun call_environment.door_initially_closed.next () Bool)
(declare-fun call_properties.call_jafter.after.next () Bool)
(declare-fun call_properties.call_once_from_to.call_jafter.flby.next () Bool)
(declare-fun env_always_ok () Bool)
(declare-fun call_properties.call_edge.edge () Bool)
(declare-fun call_properties.call_jafter.flby.next () Bool)
(declare-fun call_properties.call_once_from_to.call_switch.ite.next () Bool)
(declare-fun call_environment.call_jafter.flby () Bool)
(declare-fun call_controller.req_pending () Bool)
(declare-fun call_environment.call_jafter.after () Bool)
(declare-fun call_environment.call_edge6.flby () Bool)
(declare-fun prop_ok.next () Bool)
(declare-fun call_properties.call_once_from_to.call_jafter.flby () Bool)
(declare-fun call_controller.call_switch.flby.next () Bool)
(declare-fun call_environment.call_jafter.after.next () Bool)
(declare-fun call_controller.call_switch.value.next () Bool)
(declare-fun door_ok.next () Bool)
(declare-fun call_properties.call_edge.edge.next () Bool)
(declare-fun call_environment.warning_start_cant_become_true_when_door_is_opening () Bool)
(declare-fun call_environment.call_edge2.edge.next () Bool)
(declare-fun call_properties.call_once_from_to.between_A_and_X () Bool)
(declare-fun call_environment.warning_start_only_in_station.next () Bool)
(declare-fun _OK_ () Bool)
(declare-fun call_controller.call_switch.ite2.next () Bool)
(declare-fun call_properties.call_once_from_to.call_jafter.after.next () Bool)
(declare-fun call_environment.door_doesnt_close_if_not_asked.next () Bool)
(declare-fun call_environment.env_always_ok () Bool)
(declare-fun call_controller.open_door.next () Bool)
(declare-fun call_properties.call_once_from_to.call_switch.ite2.next () Bool)
(declare-fun call_properties.call_jafter2.after () Bool)
(declare-fun call_properties.call_jafter2.flby () Bool)
(declare-fun call_environment.call_edge.flby.next () Bool)
(declare-fun call_environment.door_initially_closed () Bool)
(declare-fun call_environment.flby2.next () Bool)
(declare-fun call_properties.call_once_from_to._OK_ () Bool)
(declare-fun call_controller.call_switch.value () Bool)
(declare-fun call_properties.door_doesnt_open_out_of_station () Bool)
(declare-fun call_environment.call_edge.edge.next () Bool)
(define-fun .def_915 () Bool (= call_controller.call_switch.ite2.next call_controller.call_switch.value.next))
(define-fun .def_913 () Bool (= call_controller.req_pending.next call_controller.call_switch.value.next))
(define-fun .def_720 () Bool (not param_door_is_open.next))
(define-fun .def_909 () Bool (and .def_720 param_warning_start.next))
(define-fun .def_910 () Bool (= call_controller.door_ok.next .def_909))
(define-fun .def_906 () Bool (and param_door_is_open.next param_warning_start.next))
(define-fun .def_907 () Bool (= call_controller.close_door.next .def_906))
(define-fun .def_903 () Bool (and param_in_station.next call_controller.req_pending.next))
(define-fun .def_904 () Bool (= call_controller.open_door.next .def_903))
(define-fun .def_900 () Bool (= call_environment.call_edge6.flby.next call_environment.call_edge6.edge.next))
(define-fun .def_898 () Bool (= call_environment.call_edge5.flby.next call_environment.call_edge5.edge.next))
(define-fun .def_896 () Bool (= call_environment.call_edge4.flby.next call_environment.call_edge4.edge.next))
(define-fun .def_894 () Bool (= call_environment.call_jafter.flby.next call_environment.call_jafter.after.next))
(define-fun .def_892 () Bool (= call_environment.call_edge3.flby.next call_environment.call_edge3.edge.next))
(define-fun .def_890 () Bool (= call_environment.call_edge2.flby.next call_environment.call_edge2.edge.next))
(define-fun .def_888 () Bool (= call_environment.call_edge.flby.next call_environment.call_edge.edge.next))
(define-fun .def_884 () Bool (not open_door.next))
(define-fun .def_883 () Bool (not call_environment.call_edge6.edge.next))
(define-fun .def_885 () Bool (or .def_883 .def_884))
(define-fun .def_886 () Bool (= call_environment.warning_start_cant_become_true_when_door_is_opening.next .def_885))
(define-fun .def_735 () Bool (not param_warning_start.next))
(define-fun .def_879 () Bool (or param_in_station.next .def_735))
(define-fun .def_880 () Bool (= call_environment.warning_start_only_in_station.next .def_879))
(define-fun .def_876 () Bool (= call_environment.call_edge4.edge.next call_environment.call_edge5.edge.next))
(define-fun .def_877 () Bool (= call_environment.warning_start_and_in_station_go_down_simultaneously.next .def_876))
(define-fun .def_872 () Bool (= call_environment.flby3.next call_environment.initially_not_in_station.next))
(define-fun .def_870 () Bool (= call_environment.flby2.next call_environment.door_initially_closed.next))
(define-fun .def_865 () Bool (not call_environment.call_edge3.edge.next))
(define-fun .def_867 () Bool (or .def_865 call_environment.call_jafter.after.next))
(define-fun .def_868 () Bool (= call_environment.tramway_doesnt_start_if_not_door_ok.next .def_867))
(define-fun .def_860 () Bool (not call_environment.call_edge2.edge.next))
(define-fun .def_861 () Bool (or close_door.next .def_860))
(define-fun .def_862 () Bool (= call_environment.door_doesnt_open_if_not_asked.next .def_861))
(define-fun .def_855 () Bool (not call_environment.call_edge.edge.next))
(define-fun .def_856 () Bool (or open_door.next .def_855))
(define-fun .def_857 () Bool (= call_environment.door_doesnt_close_if_not_asked.next .def_856))
(define-fun .def_839 () Bool (and call_environment.door_doesnt_close_if_not_asked.next call_environment.door_doesnt_open_if_not_asked.next))
(define-fun .def_841 () Bool (and .def_839 call_environment.tramway_doesnt_start_if_not_door_ok.next))
(define-fun .def_843 () Bool (and .def_841 call_environment.door_initially_closed.next))
(define-fun .def_845 () Bool (and .def_843 call_environment.initially_not_in_station.next))
(define-fun .def_847 () Bool (and .def_845 call_environment.warning_start_and_in_station_go_down_simultaneously.next))
(define-fun .def_849 () Bool (and .def_847 call_environment.warning_start_only_in_station.next))
(define-fun .def_851 () Bool (and .def_849 call_environment.warning_start_cant_become_true_when_door_is_opening.next))
(define-fun .def_852 () Bool (= call_environment.env_ok.next .def_851))
(define-fun .def_835 () Bool (= call_environment.flby.next call_environment.env_always_ok.next))
(define-fun .def_833 () Bool (= call_properties.call_once_from_to.call_switch.ite2.next call_properties.call_once_from_to.call_switch.value.next))
(define-fun .def_830 () Bool (= call_properties.call_once_from_to.call_jafter.flby.next call_properties.call_once_from_to.call_jafter.after.next))
(define-fun .def_827 () Bool (not call_properties.call_once_from_to.call_jafter.after.next))
(define-fun .def_826 () Bool (not call_properties.call_once_from_to.call_switch.ite.next))
(define-fun .def_828 () Bool (or .def_826 .def_827))
(define-fun .def_823 () Bool (= call_properties.call_once_from_to.call_switch.flby.next call_properties.call_once_from_to.call_switch.ite.next))
(define-fun .def_825 () Bool (or .def_823 call_properties.call_once_from_to.call_jafter.after.next))
(define-fun .def_829 () Bool (and .def_825 .def_828))
(define-fun .def_831 () Bool (and .def_829 .def_830))
(define-fun .def_821 () Bool (= call_properties.call_once_from_to.between_A_and_X.next call_properties.call_once_from_to.call_switch.value.next))
(define-fun .def_816 () Bool (and call_properties.call_edge.edge.next call_properties.call_once_from_to.between_A_and_X.next))
(define-fun .def_817 () Bool (not .def_816))
(define-fun .def_818 () Bool (= call_properties.call_once_from_to._OK_.next .def_817))
(define-fun .def_813 () Bool (= call_properties.call_jafter2.flby.next call_properties.call_jafter2.after.next))
(define-fun .def_810 () Bool (= call_properties.call_edge.flby.next call_properties.call_edge.edge.next))
(define-fun .def_806 () Bool (= call_properties.call_jafter.flby.next call_properties.call_jafter.after.next))
(define-fun .def_803 () Bool (not call_properties.call_jafter.after.next))
(define-fun .def_804 () Bool (or call_properties.call_once_from_to.call_switch.ite2.next .def_803))
(define-fun .def_800 () Bool (= call_properties.call_once_from_to.call_switch.ite.next call_properties.call_once_from_to.call_switch.ite2.next))
(define-fun .def_802 () Bool (or .def_800 call_properties.call_jafter.after.next))
(define-fun .def_805 () Bool (and .def_802 .def_804))
(define-fun .def_807 () Bool (and .def_805 .def_806))
(define-fun .def_796 () Bool (= call_properties.door_opens_before_leaving_station.next call_properties.call_once_from_to._OK_.next))
(define-fun .def_792 () Bool (or param_in_station.next .def_720))
(define-fun .def_793 () Bool (= call_properties.door_doesnt_open_out_of_station.next .def_792))
(define-fun .def_789 () Bool (and call_properties.door_doesnt_open_out_of_station.next call_properties.door_opens_before_leaving_station.next))
(define-fun .def_790 () Bool (= call_properties._OK_.next .def_789))
(define-fun .def_785 () Bool (= door_ok.next call_controller.door_ok.next))
(define-fun .def_781 () Bool (= close_door.next call_controller.close_door.next))
(define-fun .def_777 () Bool (= open_door.next call_controller.open_door.next))
(define-fun .def_773 () Bool (= prop_ok.next call_properties._OK_.next))
(define-fun .def_770 () Bool (= env_always_ok.next call_environment.env_always_ok.next))
(define-fun .def_764 () Bool (not env_always_ok.next))
(define-fun .def_766 () Bool (or .def_764 prop_ok.next))
(define-fun .def_767 () Bool (= _OK_.next .def_766))
(define-fun .def_758 () Bool (not call_controller.call_switch.ite.next))
(define-fun .def_759 () Bool (or .def_720 .def_758))
(define-fun .def_756 () Bool (= call_controller.call_switch.flby.next call_controller.call_switch.ite.next))
(define-fun .def_757 () Bool (or param_door_is_open.next .def_756))
(define-fun .def_760 () Bool (and .def_757 .def_759))
(define-fun .def_751 () Bool (and .def_735 param_request_door.next))
(define-fun .def_753 () Bool (not .def_751))
(define-fun .def_754 () Bool (or call_controller.call_switch.ite2.next .def_753))
(define-fun .def_749 () Bool (= call_controller.call_switch.ite.next call_controller.call_switch.ite2.next))
(define-fun .def_752 () Bool (or .def_749 .def_751))
(define-fun .def_755 () Bool (and .def_752 .def_754))
(define-fun .def_761 () Bool (and .def_755 .def_760))
(define-fun .def_768 () Bool (and .def_761 .def_767))
(define-fun .def_771 () Bool (and .def_768 .def_770))
(define-fun .def_774 () Bool (and .def_771 .def_773))
(define-fun .def_778 () Bool (and .def_774 .def_777))
(define-fun .def_782 () Bool (and .def_778 .def_781))
(define-fun .def_786 () Bool (and .def_782 .def_785))
(define-fun .def_791 () Bool (and .def_786 .def_790))
(define-fun .def_794 () Bool (and .def_791 .def_793))
(define-fun .def_797 () Bool (and .def_794 .def_796))
(define-fun .def_808 () Bool (and .def_797 .def_807))
(define-fun .def_811 () Bool (and .def_808 .def_810))
(define-fun .def_814 () Bool (and .def_811 .def_813))
(define-fun .def_819 () Bool (and .def_814 .def_818))
(define-fun .def_822 () Bool (and .def_819 .def_821))
(define-fun .def_832 () Bool (and .def_822 .def_831))
(define-fun .def_834 () Bool (and .def_832 .def_833))
(define-fun .def_836 () Bool (and .def_834 .def_835))
(define-fun .def_853 () Bool (and .def_836 .def_852))
(define-fun .def_858 () Bool (and .def_853 .def_857))
(define-fun .def_863 () Bool (and .def_858 .def_862))
(define-fun .def_869 () Bool (and .def_863 .def_868))
(define-fun .def_871 () Bool (and .def_869 .def_870))
(define-fun .def_873 () Bool (and .def_871 .def_872))
(define-fun .def_878 () Bool (and .def_873 .def_877))
(define-fun .def_881 () Bool (and .def_878 .def_880))
(define-fun .def_887 () Bool (and .def_881 .def_886))
(define-fun .def_889 () Bool (and .def_887 .def_888))
(define-fun .def_891 () Bool (and .def_889 .def_890))
(define-fun .def_893 () Bool (and .def_891 .def_892))
(define-fun .def_895 () Bool (and .def_893 .def_894))
(define-fun .def_897 () Bool (and .def_895 .def_896))
(define-fun .def_899 () Bool (and .def_897 .def_898))
(define-fun .def_901 () Bool (and .def_899 .def_900))
(define-fun .def_905 () Bool (and .def_901 .def_904))
(define-fun .def_908 () Bool (and .def_905 .def_907))
(define-fun .def_911 () Bool (and .def_908 .def_910))
(define-fun .def_914 () Bool (and .def_911 .def_913))
(define-fun .def_916 () Bool (and .def_914 .def_915))
(define-fun .def_686 () Bool (= call_controller.call_switch.ite2 call_controller.call_switch.value))
(define-fun .def_684 () Bool (= call_controller.req_pending call_controller.call_switch.value))
(define-fun .def_484 () Bool (not param_door_is_open))
(define-fun .def_680 () Bool (and .def_484 param_warning_start))
(define-fun .def_681 () Bool (= call_controller.door_ok .def_680))
(define-fun .def_677 () Bool (and param_door_is_open param_warning_start))
(define-fun .def_678 () Bool (= call_controller.close_door .def_677))
(define-fun .def_674 () Bool (and param_in_station call_controller.req_pending))
(define-fun .def_675 () Bool (= call_controller.open_door .def_674))
(define-fun .def_671 () Bool (= call_environment.call_edge6.flby call_environment.call_edge6.edge))
(define-fun .def_669 () Bool (= call_environment.call_edge5.flby call_environment.call_edge5.edge))
(define-fun .def_667 () Bool (= call_environment.call_edge4.flby call_environment.call_edge4.edge))
(define-fun .def_665 () Bool (= call_environment.call_jafter.flby call_environment.call_jafter.after))
(define-fun .def_663 () Bool (= call_environment.call_edge3.flby call_environment.call_edge3.edge))
(define-fun .def_661 () Bool (= call_environment.call_edge2.flby call_environment.call_edge2.edge))
(define-fun .def_659 () Bool (= call_environment.call_edge.flby call_environment.call_edge.edge))
(define-fun .def_655 () Bool (not open_door))
(define-fun .def_654 () Bool (not call_environment.call_edge6.edge))
(define-fun .def_656 () Bool (or .def_654 .def_655))
(define-fun .def_657 () Bool (= call_environment.warning_start_cant_become_true_when_door_is_opening .def_656))
(define-fun .def_521 () Bool (not param_warning_start))
(define-fun .def_650 () Bool (or param_in_station .def_521))
(define-fun .def_651 () Bool (= call_environment.warning_start_only_in_station .def_650))
(define-fun .def_647 () Bool (= call_environment.call_edge4.edge call_environment.call_edge5.edge))
(define-fun .def_648 () Bool (= call_environment.warning_start_and_in_station_go_down_simultaneously .def_647))
(define-fun .def_643 () Bool (= call_environment.flby3 call_environment.initially_not_in_station))
(define-fun .def_641 () Bool (= call_environment.flby2 call_environment.door_initially_closed))
(define-fun .def_636 () Bool (not call_environment.call_edge3.edge))
(define-fun .def_638 () Bool (or .def_636 call_environment.call_jafter.after))
(define-fun .def_639 () Bool (= call_environment.tramway_doesnt_start_if_not_door_ok .def_638))
(define-fun .def_631 () Bool (not call_environment.call_edge2.edge))
(define-fun .def_632 () Bool (or close_door .def_631))
(define-fun .def_633 () Bool (= call_environment.door_doesnt_open_if_not_asked .def_632))
(define-fun .def_626 () Bool (not call_environment.call_edge.edge))
(define-fun .def_627 () Bool (or open_door .def_626))
(define-fun .def_628 () Bool (= call_environment.door_doesnt_close_if_not_asked .def_627))
(define-fun .def_610 () Bool (and call_environment.door_doesnt_close_if_not_asked call_environment.door_doesnt_open_if_not_asked))
(define-fun .def_612 () Bool (and .def_610 call_environment.tramway_doesnt_start_if_not_door_ok))
(define-fun .def_614 () Bool (and .def_612 call_environment.door_initially_closed))
(define-fun .def_616 () Bool (and .def_614 call_environment.initially_not_in_station))
(define-fun .def_618 () Bool (and .def_616 call_environment.warning_start_and_in_station_go_down_simultaneously))
(define-fun .def_620 () Bool (and .def_618 call_environment.warning_start_only_in_station))
(define-fun .def_622 () Bool (and .def_620 call_environment.warning_start_cant_become_true_when_door_is_opening))
(define-fun .def_623 () Bool (= call_environment.env_ok .def_622))
(define-fun .def_606 () Bool (= call_environment.flby call_environment.env_always_ok))
(define-fun .def_604 () Bool (= call_properties.call_once_from_to.call_switch.ite2 call_properties.call_once_from_to.call_switch.value))
(define-fun .def_601 () Bool (= call_properties.call_once_from_to.call_jafter.flby call_properties.call_once_from_to.call_jafter.after))
(define-fun .def_598 () Bool (not call_properties.call_once_from_to.call_jafter.after))
(define-fun .def_597 () Bool (not call_properties.call_once_from_to.call_switch.ite))
(define-fun .def_599 () Bool (or .def_597 .def_598))
(define-fun .def_594 () Bool (= call_properties.call_once_from_to.call_switch.flby call_properties.call_once_from_to.call_switch.ite))
(define-fun .def_596 () Bool (or .def_594 call_properties.call_once_from_to.call_jafter.after))
(define-fun .def_600 () Bool (and .def_596 .def_599))
(define-fun .def_602 () Bool (and .def_600 .def_601))
(define-fun .def_592 () Bool (= call_properties.call_once_from_to.between_A_and_X call_properties.call_once_from_to.call_switch.value))
(define-fun .def_587 () Bool (and call_properties.call_edge.edge call_properties.call_once_from_to.between_A_and_X))
(define-fun .def_588 () Bool (not .def_587))
(define-fun .def_589 () Bool (= call_properties.call_once_from_to._OK_ .def_588))
(define-fun .def_584 () Bool (= call_properties.call_jafter2.flby call_properties.call_jafter2.after))
(define-fun .def_581 () Bool (= call_properties.call_edge.flby call_properties.call_edge.edge))
(define-fun .def_577 () Bool (= call_properties.call_jafter.flby call_properties.call_jafter.after))
(define-fun .def_574 () Bool (not call_properties.call_jafter.after))
(define-fun .def_575 () Bool (or call_properties.call_once_from_to.call_switch.ite2 .def_574))
(define-fun .def_571 () Bool (= call_properties.call_once_from_to.call_switch.ite call_properties.call_once_from_to.call_switch.ite2))
(define-fun .def_573 () Bool (or .def_571 call_properties.call_jafter.after))
(define-fun .def_576 () Bool (and .def_573 .def_575))
(define-fun .def_578 () Bool (and .def_576 .def_577))
(define-fun .def_567 () Bool (= call_properties.door_opens_before_leaving_station call_properties.call_once_from_to._OK_))
(define-fun .def_563 () Bool (or .def_484 param_in_station))
(define-fun .def_564 () Bool (= call_properties.door_doesnt_open_out_of_station .def_563))
(define-fun .def_560 () Bool (and call_properties.door_doesnt_open_out_of_station call_properties.door_opens_before_leaving_station))
(define-fun .def_561 () Bool (= call_properties._OK_ .def_560))
(define-fun .def_556 () Bool (= door_ok call_controller.door_ok))
(define-fun .def_552 () Bool (= close_door call_controller.close_door))
(define-fun .def_548 () Bool (= open_door call_controller.open_door))
(define-fun .def_544 () Bool (= prop_ok call_properties._OK_))
(define-fun .def_541 () Bool (= env_always_ok call_environment.env_always_ok))
(define-fun .def_535 () Bool (not env_always_ok))
(define-fun .def_537 () Bool (or .def_535 prop_ok))
(define-fun .def_538 () Bool (= _OK_ .def_537))
(define-fun .def_529 () Bool (not call_controller.call_switch.ite))
(define-fun .def_530 () Bool (or .def_484 .def_529))
(define-fun .def_527 () Bool (= call_controller.call_switch.flby call_controller.call_switch.ite))
(define-fun .def_528 () Bool (or param_door_is_open .def_527))
(define-fun .def_531 () Bool (and .def_528 .def_530))
(define-fun .def_522 () Bool (and param_request_door .def_521))
(define-fun .def_524 () Bool (not .def_522))
(define-fun .def_525 () Bool (or call_controller.call_switch.ite2 .def_524))
(define-fun .def_518 () Bool (= call_controller.call_switch.ite call_controller.call_switch.ite2))
(define-fun .def_523 () Bool (or .def_518 .def_522))
(define-fun .def_526 () Bool (and .def_523 .def_525))
(define-fun .def_532 () Bool (and .def_526 .def_531))
(define-fun .def_539 () Bool (and .def_532 .def_538))
(define-fun .def_542 () Bool (and .def_539 .def_541))
(define-fun .def_545 () Bool (and .def_542 .def_544))
(define-fun .def_549 () Bool (and .def_545 .def_548))
(define-fun .def_553 () Bool (and .def_549 .def_552))
(define-fun .def_557 () Bool (and .def_553 .def_556))
(define-fun .def_562 () Bool (and .def_557 .def_561))
(define-fun .def_565 () Bool (and .def_562 .def_564))
(define-fun .def_568 () Bool (and .def_565 .def_567))
(define-fun .def_579 () Bool (and .def_568 .def_578))
(define-fun .def_582 () Bool (and .def_579 .def_581))
(define-fun .def_585 () Bool (and .def_582 .def_584))
(define-fun .def_590 () Bool (and .def_585 .def_589))
(define-fun .def_593 () Bool (and .def_590 .def_592))
(define-fun .def_603 () Bool (and .def_593 .def_602))
(define-fun .def_605 () Bool (and .def_603 .def_604))
(define-fun .def_607 () Bool (and .def_605 .def_606))
(define-fun .def_624 () Bool (and .def_607 .def_623))
(define-fun .def_629 () Bool (and .def_624 .def_628))
(define-fun .def_634 () Bool (and .def_629 .def_633))
(define-fun .def_640 () Bool (and .def_634 .def_639))
(define-fun .def_642 () Bool (and .def_640 .def_641))
(define-fun .def_644 () Bool (and .def_642 .def_643))
(define-fun .def_649 () Bool (and .def_644 .def_648))
(define-fun .def_652 () Bool (and .def_649 .def_651))
(define-fun .def_658 () Bool (and .def_652 .def_657))
(define-fun .def_660 () Bool (and .def_658 .def_659))
(define-fun .def_662 () Bool (and .def_660 .def_661))
(define-fun .def_664 () Bool (and .def_662 .def_663))
(define-fun .def_666 () Bool (and .def_664 .def_665))
(define-fun .def_668 () Bool (and .def_666 .def_667))
(define-fun .def_670 () Bool (and .def_668 .def_669))
(define-fun .def_672 () Bool (and .def_670 .def_671))
(define-fun .def_676 () Bool (and .def_672 .def_675))
(define-fun .def_679 () Bool (and .def_676 .def_678))
(define-fun .def_682 () Bool (and .def_679 .def_681))
(define-fun .def_685 () Bool (and .def_682 .def_684))
(define-fun .def_687 () Bool (and .def_685 .def_686))
(define-fun .def_917 () Bool (and .def_687 .def_916))
(define-fun .def_745 () Bool (= call_controller.call_switch.value call_controller.call_switch.flby.next))
(define-fun .def_740 () Bool (and .def_521 param_warning_start.next))
(define-fun .def_742 () Bool (= .def_740 call_environment.call_edge6.flby.next))
(define-fun .def_736 () Bool (and param_warning_start .def_735))
(define-fun .def_738 () Bool (= .def_736 call_environment.call_edge5.flby.next))
(define-fun .def_690 () Bool (not param_in_station.next))
(define-fun .def_691 () Bool (and param_in_station .def_690))
(define-fun .def_732 () Bool (= .def_691 call_environment.call_edge4.flby.next))
(define-fun .def_729 () Bool (= door_ok call_environment.call_jafter.flby.next))
(define-fun .def_726 () Bool (= .def_691 call_environment.call_edge3.flby.next))
(define-fun .def_721 () Bool (and param_door_is_open .def_720))
(define-fun .def_723 () Bool (= .def_721 call_environment.call_edge2.flby.next))
(define-fun .def_716 () Bool (and .def_484 param_door_is_open.next))
(define-fun .def_718 () Bool (= .def_716 call_environment.call_edge.flby.next))
(define-fun .def_707 () Bool (and call_environment.env_always_ok call_environment.env_ok.next))
(define-fun .def_709 () Bool (= .def_707 call_environment.flby.next))
(define-fun .def_704 () Bool (= call_properties.call_once_from_to.call_switch.value call_properties.call_once_from_to.call_switch.flby.next))
(define-fun .def_701 () Bool (= call_properties.call_jafter2.after call_properties.call_once_from_to.call_jafter.flby.next))
(define-fun .def_698 () Bool (= param_door_is_open call_properties.call_jafter2.flby.next))
(define-fun .def_695 () Bool (= .def_522 call_properties.call_jafter.flby.next))
(define-fun .def_693 () Bool (= .def_691 call_properties.call_edge.flby.next))
(define-fun .def_696 () Bool (and .def_693 .def_695))
(define-fun .def_699 () Bool (and .def_696 .def_698))
(define-fun .def_702 () Bool (and .def_699 .def_701))
(define-fun .def_705 () Bool (and .def_702 .def_704))
(define-fun .def_710 () Bool (and .def_705 .def_709))
(define-fun .def_712 () Bool (and .def_710 call_environment.flby2.next))
(define-fun .def_714 () Bool (and .def_712 call_environment.flby3.next))
(define-fun .def_719 () Bool (and .def_714 .def_718))
(define-fun .def_724 () Bool (and .def_719 .def_723))
(define-fun .def_727 () Bool (and .def_724 .def_726))
(define-fun .def_730 () Bool (and .def_727 .def_729))
(define-fun .def_733 () Bool (and .def_730 .def_732))
(define-fun .def_739 () Bool (and .def_733 .def_738))
(define-fun .def_743 () Bool (and .def_739 .def_742))
(define-fun .def_746 () Bool (and .def_743 .def_745))
(define-fun .def_918 () Bool (and .def_746 .def_917))
(assert .def_918)
